Capacited_Lot_Sizing.lp
\ENCODING=ISO-8859-1
\Problem name: ilog.cplex

Minimize
 obj: 180 y(1)#0 + 7 q(1)#1 + I(1)#2 + 140 y(2)#3 + 7 q(2)#4 + I(2)#5
      + 160 y(3)#6 + 8 q(3)#7 + 2 I(3)#8 + 160 y(4)#9 + 7 q(4)#10 + 2 I(4)#11
      + 170 y(5)#12 + 6 q(5)#13 + 2 I(5)#14 + 190 y(6)#15 + 10 q(6)#16
      + 2 I(6)#17
Subject To
 c1:  q(1)#1 - I(1)#2 + I(0)#18  = 60
 c3:  I(1)#2 + q(2)#4 - I(2)#5  = 100
 c5:  I(2)#5 + q(3)#7 - I(3)#8  = 140
 c7:  I(3)#8 + q(4)#10 - I(4)#11  = 200
 c9:  I(4)#11 + q(5)#13 - I(5)#14  = 120
 c11: I(5)#14 + q(6)#16 - I(6)#17  = 80
 c13: I(0)#18  = 0
 c15: I(6)#17  = 0
 c17: y(0)#19  = 0
 c19: q(0)#20  = 0
 c21: - 1.79769313486232e+308 y(1)#0 + q(1)#1 <= 0
 c23: - 1.79769313486232e+308 y(2)#3 + q(2)#4 <= 0
 c25: - 1.79769313486232e+308 y(3)#6 + q(3)#7 <= 0
 c27: - 1.79769313486232e+308 y(4)#9 + q(4)#10 <= 0
 c29: - 1.79769313486232e+308 y(5)#12 + q(5)#13 <= 0
 c31: - 1.79769313486232e+308 y(6)#15 + q(6)#16 <= 0
Bounds
 0 <= y(1)#0 <= 1
 0 <= y(2)#3 <= 1
 0 <= y(3)#6 <= 1
 0 <= y(4)#9 <= 1
 0 <= y(5)#12 <= 1
 0 <= y(6)#15 <= 1
 0 <= y(0)#19 <= 1
Generals
 y(1)#0  y(2)#3  y(3)#6  y(4)#9  y(5)#12  y(6)#15  y(0)#19 
End
