Capacited_Lot_Sizing.log
Tried aggregator 2 times.
MIP Presolve eliminated 6 rows and 6 columns.
MIP Presolve modified 6 coefficients.
Aggregator did 1 substitutions.
Reduced MIP has 9 rows, 14 columns, and 22 nonzeros.
Reduced MIP has 5 binaries, 0 generals, 0 SOSs, and 0 indicators.
Presolve time = 0.00 sec. (0.03 ticks)
Found incumbent of value 7040.000000 after 0.00 sec. (0.05 ticks)
Probing time = 0.00 sec. (0.00 ticks)
Tried aggregator 1 time.
Reduced MIP has 9 rows, 14 columns, and 22 nonzeros.
Reduced MIP has 5 binaries, 0 generals, 0 SOSs, and 0 indicators.
Presolve time = 0.00 sec. (0.01 ticks)
Probing time = 0.00 sec. (0.00 ticks)
MIP emphasis: balance optimality and feasibility.
MIP search method: dynamic search.
Parallel mode: deterministic, using up to 4 threads.
Root relaxation solution time = 0.02 sec. (0.01 ticks)

        Nodes                                         Cuts/
   Node  Left     Objective  IInf  Best Integer    Best Bound    ItCnt     Gap

*     0+    0                         7040.0000      760.0000        0   89.20%
      0     0     5482.5000     2     7040.0000     5482.5000        0   22.12%
*     0+    0                         5650.0000     5482.5000        0    2.96%
      0     0        cutoff           5650.0000                      2    0.00%
Elapsed time = 0.08 sec. (0.14 ticks, tree = 0.00 MB, solutions = 2)

Root node processing (before b&c):
  Real time             =    0.08 sec. (0.14 ticks)
Parallel b&c, 4 threads:
  Real time             =    0.00 sec. (0.00 ticks)
  Sync time (average)   =    0.00 sec.
  Wait time (average)   =    0.00 sec.
                          ------------
Total (root+branch&cut) =    0.08 sec. (0.14 ticks)

Solution status = Optimal

Total Cost 5650.0
Time t = 1
---> q[1] = 60.0
---> I[1] = 0.0
---> y[1] = 1.0
Time t = 2
---> q[2] = 240.0
---> I[2] = 140.0
---> y[2] = 1.0
Time t = 3
---> q[3] = 0.0
---> I[3] = 0.0
---> y[3] = 0.0
Time t = 4
---> q[4] = 200.0
---> I[4] = 0.0
---> y[4] = 1.0
Time t = 5
---> q[5] = 200.0
---> I[5] = 80.0
---> y[5] = 1.0
Time t = 6
---> q[6] = 0.0
---> I[6] = 0.0
---> y[6] = 0.0
